200
120
99
99
99
99
98
98
98
97
96
95
95
95
95
95
94
94
93
93
93
91
91
91
90
90
90
90
90
90
89
89
88
87
87
86
86
85
85
85
85
84
84
83
82
82
80
80
79
79
79
78
78
78
78
77
77
77
76
76
76
75
75
75
72
72
71
71
70
70
69
67
67
67
67
66
65
65
64
64
64
63
63
63
62
62
61
61
59
59
58
58
58
57
57
57
57
56
55
55
55
54
53
52
51
51
50
50
49
48
47
46
45
44
44
43
43
42
40
40
38
37
37
36
36
35
35
35
35
33
33
32
32
32
31
31
31
31
31
31
30
29
29
29
28
27
27
26
26
25
24
24
24
22
22
21
20
19
19
19
18
17
16
16
16
15
15
15
15
15
14
14
14
13
13
12
12
12
12
11
11
10
9
9
8
7
6
6
6
6
5
5
5
4
4
4
3
3
3
3
3
2
